NAME : local_15
TYPE : ATSP
DIMENSION : 10
EDGE_WEIGHT_TYPE : EXPLICIT
EDGE_WEIGHT_FORMAT : FULL_MATRIX
EDGE_WEIGHT_SECTION
0 353 647 182 708 808 693 676 362 0 
0 0 729 515 10000000 698 424 581 443 353 
0 729 0 594 614 10000000 10000000 10000000 978 647 
0 515 594 0 535 974 874 836 472 182 
0 10000000 614 535 0 10000000 10000000 10000000 990 708 
0 698 10000000 996 10000000 0 418 550 823 808 
0 424 10000000 874 10000000 418 0 443 658 693 
0 581 10000000 836 10000000 550 443 0 446 676 
0 443 978 472 990 823 658 446 0 362 
0 10000000 10000000 10000000 10000000 10000000 10000000 10000000 10000000 0 
EOF